p wcnf 151 226 227 
1 105 115 0 
1 -15 150 0 
1 52 -12 0 
1 98 120 0 
1 -51 136 0 
1 -52 -31 0 
1 -16 -11 0 
1 -35 -142 0 
1 63 -6 0 
1 126 -83 0 
1 127 -125 0 
1 -136 -121 0 
1 43 58 0 
1 -20 -122 0 
1 67 -104 0 
1 -119 -125 0 
1 112 108 0 
1 -150 -21 0 
1 -103 99 0 
1 -3 108 0 
1 26 81 0 
1 37 -4 0 
1 -125 76 0 
1 47 57 0 
1 -125 113 0 
1 28 4 0 
1 -20 -118 0 
1 -140 124 0 
1 129 -55 0 
1 -133 -52 0 
1 6 -114 0 
1 -97 150 0 
1 -11 -137 0 
1 -59 112 0 
1 64 -53 0 
1 60 107 0 
1 -82 -12 0 
1 -103 146 0 
1 -128 -50 0 
1 5 55 0 
1 -67 -107 0 
1 -90 51 0 
1 -83 -74 0 
1 -46 138 0 
1 26 67 0 
1 103 43 0 
1 -138 116 0 
1 -151 16 0 
1 -61 55 0 
1 8 4 0 
1 -56 -142 0 
1 -65 18 0 
1 75 -54 0 
1 104 -115 0 
1 -59 -18 0 
1 -67 -35 0 
1 23 -77 0 
1 53 65 0 
1 -9 -117 0 
1 -133 -3 0 
1 84 67 0 
1 125 64 0 
1 -39 139 0 
1 -37 129 0 
1 102 -147 0 
1 -30 -128 0 
1 -60 -149 0 
1 117 -77 0 
1 129 -124 0 
1 32 -4 0 
1 85 -100 0 
1 -40 -89 0 
1 -123 -67 0 
1 -51 -91 0 
1 57 -139 0 
1 125 -93 0 
1 -44 121 0 
1 59 10 0 
1 24 61 0 
1 -54 -145 0 
1 -111 64 0 
1 69 -15 0 
1 -81 -16 0 
1 105 -94 0 
1 149 -73 0 
1 81 -68 0 
1 -89 32 0 
1 117 -128 0 
1 65 -127 0 
1 -85 72 0 
1 -75 14 0 
1 -3 53 0 
1 23 118 0 
1 128 -116 0 
1 89 -81 0 
1 107 -130 0 
1 -93 42 0 
1 -80 -112 0 
1 46 -99 0 
1 -124 -147 0 
1 16 -147 0 
1 14 87 0 
1 -113 -69 0 
1 22 -113 0 
1 -34 -92 0 
1 -83 48 0 
1 110 46 0 
1 83 143 0 
1 -31 46 0 
1 1 115 0 
1 40 -101 0 
1 55 -71 0 
1 -151 -3 0 
1 -39 96 0 
1 15 -65 0 
1 -95 41 0 
1 -129 -115 0 
1 -40 -141 0 
1 -114 -14 0 
1 36 119 0 
1 -42 145 0 
1 124 56 0 
1 129 -142 0 
1 6 136 0 
1 -18 -141 0 
1 -2 -132 0 
1 -23 81 0 
1 -38 80 0 
1 20 -90 0 
1 -145 106 0 
1 -34 32 0 
1 -108 -119 0 
1 -18 -46 0 
1 127 95 0 
1 113 -109 0 
1 117 77 0 
1 -37 99 0 
1 -142 -33 0 
1 -96 79 0 
1 -147 -109 0 
1 -111 102 0 
1 -143 -68 0 
1 66 -9 0 
1 12 95 0 
1 84 -42 0 
1 -142 17 0 
1 -41 -150 0 
1 136 66 0 
1 -132 -45 0 
1 -15 -22 0 
1 -10 16 0 
1 -44 -112 0 
1 39 -121 0 
1 -125 10 0 
1 135 -105 0 
1 -16 3 0 
1 145 -60 0 
1 -116 -9 0 
1 -62 26 0 
1 94 -96 0 
1 120 -102 0 
1 -103 94 0 
1 29 -53 0 
1 83 -68 0 
1 55 84 0 
1 120 148 0 
1 143 -112 0 
1 140 -37 0 
1 41 -86 0 
1 -121 22 0 
1 -59 -18 0 
1 -121 67 0 
1 -2 123 0 
1 -143 46 0 
1 146 147 0 
1 63 -4 0 
1 123 -104 0 
1 10 -17 0 
1 151 73 0 
1 -84 -17 0 
1 138 -59 0 
1 85 58 0 
1 -78 -135 0 
1 61 -42 0 
1 102 -3 0 
1 87 59 0 
1 -124 147 0 
1 -131 -44 0 
1 135 -122 0 
1 -71 -104 0 
1 86 34 0 
1 78 18 0 
1 92 -97 0 
1 118 -100 0 
1 100 -58 0 
1 47 32 0 
1 -61 56 0 
1 134 71 0 
1 25 135 0 
1 23 -34 0 
1 105 -14 0 
1 -143 -25 0 
1 -59 36 0 
1 73 63 0 
1 127 -62 0 
1 147 -151 0 
1 -105 62 0 
1 -17 76 0 
1 -46 -60 0 
1 108 -91 0 
1 -71 -121 0 
1 -127 62 0 
1 84 -18 0 
1 42 -127 0 
1 -64 -145 0 
1 7 36 0 
1 -61 147 0 
1 -18 -107 0 
1 -145 -36 0 
1 -5 83 0 
1 128 90 0 
1 121 114 0 
1 10 -120 0 
1 68 -89 0 
1 79 120 0 
1 -99 -103 0 
